p cnf 9 21
2 -3 0
-1 -3 0
1 -2 3 0
-3 4 0
1 4 0
-1 3 -4 0
5 -6 0
4 -6 0
-4 -5 6 0
-4 7 0
6 7 0
4 -6 -7 0
4 -8 0
-7 -8 0
-4 7 8 0
-6 9 0
-8 9 0
6 8 -9 0
7 0
9 0
6 0
c main::1::a!0@1#1 1
c main::1::b!0@1#1 2
c main::1::c!0@1#1 5
c main::1::a!0@1#2 -1
c main::1::b!0@1#2 3
c main::1::b!0@1#3 4
c main::1::c!0@1#2 6
c main::1::a!0@1#3 7
c main::1::b!0@1#4 9
